c Problem generated from carry-save[n-bit] multiplication circuit
c by Paul Purdom and Amr Sabry
c
c Circuit for product = 71 [True,False,False,False,True,True,True]
c Variables for output [msb,...,lsb]: [116,115,110,105,100,96,68,37,19,11]
c Variables for first input [msb,...,lsb]: [6,5,4,3,2,1]
c Variables for second input [msb,...,lsb]: [10,9,8,7]
c
c
p cnf 116 434
1 7 -11 0
1 -7 -11 0
-1 7 -11 0
-1 -7 11 0
2 7 -12 0
2 -7 -12 0
-2 7 -12 0
-2 -7 12 0
3 7 -13 0
3 -7 -13 0
-3 7 -13 0
-3 -7 13 0
4 7 -14 0
4 -7 -14 0
-4 7 -14 0
-4 -7 14 0
5 7 -15 0
5 -7 -15 0
-5 7 -15 0
-5 -7 15 0
6 7 -16 0
6 -7 -16 0
-6 7 -16 0
-6 -7 16 0
1 8 -17 0
1 -8 -17 0
-1 8 -17 0
-1 -8 17 0
12 17 -18 0
12 -17 -18 0
-12 17 -18 0
-12 -17 18 0
12 17 -19 0
12 -17 19 0
-12 17 19 0
-12 -17 -19 0
2 8 -20 0
2 -8 -20 0
-2 8 -20 0
-2 -8 20 0
13 20 -21 0
13 -20 -21 0
-13 20 -21 0
-13 -20 21 0
13 20 -22 0
13 -20 22 0
-13 20 22 0
-13 -20 -22 0
3 8 -23 0
3 -8 -23 0
-3 8 -23 0
-3 -8 23 0
14 23 -24 0
14 -23 -24 0
-14 23 -24 0
-14 -23 24 0
14 23 -25 0
14 -23 25 0
-14 23 25 0
-14 -23 -25 0
4 8 -26 0
4 -8 -26 0
-4 8 -26 0
-4 -8 26 0
15 26 -27 0
15 -26 -27 0
-15 26 -27 0
-15 -26 27 0
15 26 -28 0
15 -26 28 0
-15 26 28 0
-15 -26 -28 0
5 8 -29 0
5 -8 -29 0
-5 8 -29 0
-5 -8 29 0
16 29 -30 0
16 -29 -30 0
-16 29 -30 0
-16 -29 30 0
16 29 -31 0
16 -29 31 0
-16 29 31 0
-16 -29 -31 0
6 8 -32 0
6 -8 -32 0
-6 8 -32 0
-6 -8 32 0
1 9 -33 0
1 -9 -33 0
-1 9 -33 0
-1 -9 33 0
22 33 -34 0
22 -33 -34 0
-22 33 -34 0
-22 -33 34 0
22 33 -35 0
22 -33 35 0
-22 33 35 0
-22 -33 -35 0
18 35 -36 0
18 -35 -36 0
-18 35 -36 0
-18 -35 36 0
18 35 -37 0
18 -35 37 0
-18 35 37 0
-18 -35 -37 0
34 36 -38 0
34 -36 38 0
-34 36 38 0
-34 -36 -38 0
2 9 -39 0
2 -9 -39 0
-2 9 -39 0
-2 -9 39 0
25 39 -40 0
25 -39 -40 0
-25 39 -40 0
-25 -39 40 0
25 39 -41 0
25 -39 41 0
-25 39 41 0
-25 -39 -41 0
21 41 -42 0
21 -41 -42 0
-21 41 -42 0
-21 -41 42 0
21 41 -43 0
21 -41 43 0
-21 41 43 0
-21 -41 -43 0
40 42 -44 0
40 -42 44 0
-40 42 44 0
-40 -42 -44 0
3 9 -45 0
3 -9 -45 0
-3 9 -45 0
-3 -9 45 0
28 45 -46 0
28 -45 -46 0
-28 45 -46 0
-28 -45 46 0
28 45 -47 0
28 -45 47 0
-28 45 47 0
-28 -45 -47 0
24 47 -48 0
24 -47 -48 0
-24 47 -48 0
-24 -47 48 0
24 47 -49 0
24 -47 49 0
-24 47 49 0
-24 -47 -49 0
46 48 -50 0
46 -48 50 0
-46 48 50 0
-46 -48 -50 0
4 9 -51 0
4 -9 -51 0
-4 9 -51 0
-4 -9 51 0
31 51 -52 0
31 -51 -52 0
-31 51 -52 0
-31 -51 52 0
31 51 -53 0
31 -51 53 0
-31 51 53 0
-31 -51 -53 0
27 53 -54 0
27 -53 -54 0
-27 53 -54 0
-27 -53 54 0
27 53 -55 0
27 -53 55 0
-27 53 55 0
-27 -53 -55 0
52 54 -56 0
52 -54 56 0
-52 54 56 0
-52 -54 -56 0
5 9 -57 0
5 -9 -57 0
-5 9 -57 0
-5 -9 57 0
32 57 -58 0
32 -57 -58 0
-32 57 -58 0
-32 -57 58 0
32 57 -59 0
32 -57 59 0
-32 57 59 0
-32 -57 -59 0
30 59 -60 0
30 -59 -60 0
-30 59 -60 0
-30 -59 60 0
30 59 -61 0
30 -59 61 0
-30 59 61 0
-30 -59 -61 0
58 60 -62 0
58 -60 62 0
-58 60 62 0
-58 -60 -62 0
6 9 -63 0
6 -9 -63 0
-6 9 -63 0
-6 -9 63 0
1 10 -64 0
1 -10 -64 0
-1 10 -64 0
-1 -10 64 0
43 64 -65 0
43 -64 -65 0
-43 64 -65 0
-43 -64 65 0
43 64 -66 0
43 -64 66 0
-43 64 66 0
-43 -64 -66 0
38 66 -67 0
38 -66 -67 0
-38 66 -67 0
-38 -66 67 0
38 66 -68 0
38 -66 68 0
-38 66 68 0
-38 -66 -68 0
65 67 -69 0
65 -67 69 0
-65 67 69 0
-65 -67 -69 0
2 10 -70 0
2 -10 -70 0
-2 10 -70 0
-2 -10 70 0
49 70 -71 0
49 -70 -71 0
-49 70 -71 0
-49 -70 71 0
49 70 -72 0
49 -70 72 0
-49 70 72 0
-49 -70 -72 0
44 72 -73 0
44 -72 -73 0
-44 72 -73 0
-44 -72 73 0
44 72 -74 0
44 -72 74 0
-44 72 74 0
-44 -72 -74 0
71 73 -75 0
71 -73 75 0
-71 73 75 0
-71 -73 -75 0
3 10 -76 0
3 -10 -76 0
-3 10 -76 0
-3 -10 76 0
55 76 -77 0
55 -76 -77 0
-55 76 -77 0
-55 -76 77 0
55 76 -78 0
55 -76 78 0
-55 76 78 0
-55 -76 -78 0
50 78 -79 0
50 -78 -79 0
-50 78 -79 0
-50 -78 79 0
50 78 -80 0
50 -78 80 0
-50 78 80 0
-50 -78 -80 0
77 79 -81 0
77 -79 81 0
-77 79 81 0
-77 -79 -81 0
4 10 -82 0
4 -10 -82 0
-4 10 -82 0
-4 -10 82 0
61 82 -83 0
61 -82 -83 0
-61 82 -83 0
-61 -82 83 0
61 82 -84 0
61 -82 84 0
-61 82 84 0
-61 -82 -84 0
56 84 -85 0
56 -84 -85 0
-56 84 -85 0
-56 -84 85 0
56 84 -86 0
56 -84 86 0
-56 84 86 0
-56 -84 -86 0
83 85 -87 0
83 -85 87 0
-83 85 87 0
-83 -85 -87 0
5 10 -88 0
5 -10 -88 0
-5 10 -88 0
-5 -10 88 0
63 88 -89 0
63 -88 -89 0
-63 88 -89 0
-63 -88 89 0
63 88 -90 0
63 -88 90 0
-63 88 90 0
-63 -88 -90 0
62 90 -91 0
62 -90 -91 0
-62 90 -91 0
-62 -90 91 0
62 90 -92 0
62 -90 92 0
-62 90 92 0
-62 -90 -92 0
89 91 -93 0
89 -91 93 0
-89 91 93 0
-89 -91 -93 0
6 10 -94 0
6 -10 -94 0
-6 10 -94 0
-6 -10 94 0
69 74 -95 0
69 -74 -95 0
-69 74 -95 0
-69 -74 95 0
69 74 -96 0
69 -74 96 0
-69 74 96 0
-69 -74 -96 0
75 80 -97 0
75 -80 -97 0
-75 80 -97 0
-75 -80 97 0
75 80 -98 0
75 -80 98 0
-75 80 98 0
-75 -80 -98 0
95 98 -99 0
95 -98 -99 0
-95 98 -99 0
-95 -98 99 0
95 98 -100 0
95 -98 100 0
-95 98 100 0
-95 -98 -100 0
97 99 -101 0
97 -99 101 0
-97 99 101 0
-97 -99 -101 0
81 86 -102 0
81 -86 -102 0
-81 86 -102 0
-81 -86 102 0
81 86 -103 0
81 -86 103 0
-81 86 103 0
-81 -86 -103 0
101 103 -104 0
101 -103 -104 0
-101 103 -104 0
-101 -103 104 0
101 103 -105 0
101 -103 105 0
-101 103 105 0
-101 -103 -105 0
102 104 -106 0
102 -104 106 0
-102 104 106 0
-102 -104 -106 0
87 92 -107 0
87 -92 -107 0
-87 92 -107 0
-87 -92 107 0
87 92 -108 0
87 -92 108 0
-87 92 108 0
-87 -92 -108 0
106 108 -109 0
106 -108 -109 0
-106 108 -109 0
-106 -108 109 0
106 108 -110 0
106 -108 110 0
-106 108 110 0
-106 -108 -110 0
107 109 -111 0
107 -109 111 0
-107 109 111 0
-107 -109 -111 0
93 94 -112 0
93 -94 -112 0
-93 94 -112 0
-93 -94 112 0
93 94 -113 0
93 -94 113 0
-93 94 113 0
-93 -94 -113 0
111 113 -114 0
111 -113 -114 0
-111 113 -114 0
-111 -113 114 0
111 113 -115 0
111 -113 115 0
-111 113 115 0
-111 -113 -115 0
112 114 -116 0
112 -114 116 0
-112 114 116 0
-112 -114 -116 0
11 0
19 0
37 0
-68 0
-96 0
-100 0
105 0
-110 0
-115 0
-116 0